scenarios/sols/small/emicp_milp/002.sol
objective value:                     1.11132461237424
x(0,4,0)                                            1 	(obj:0)
x(1,5,0)                                            1 	(obj:0)
x(2,1,0)                                            1 	(obj:0)
x(3,7,1)                                            1 	(obj:0)
x(4,2,0)                                            1 	(obj:0)
x(5,10,0)                                           1 	(obj:0)
x(7,13,1)                                           1 	(obj:0)
x(10,0,0)                                           1 	(obj:0)
x(13,3,1)                                           1 	(obj:0)
xc(0,1)                                             1 	(obj:0)
xc(2,0)                                             1 	(obj:0)
xc(3,8)                                             1 	(obj:0)
xc(5,3)                                             1 	(obj:0)
xc(7,9)                                             1 	(obj:0)
u(1,0)                              0.485906261240813 	(obj:0)
u(2,0)                              0.269035713269769 	(obj:0)
u(4,0)                             0.0317814597024893 	(obj:0)
u(5,0)                               0.72969142347826 	(obj:0)
u(7,1)                               0.55566230618712 	(obj:0)
u(10,0)                              1.11132461237424 	(obj:0)
u(10,1)                              0.61401966817986 	(obj:0)
u(11,1)                              0.36086603771089 	(obj:0)
u(12,0)                            0.0509997095829995 	(obj:0)
u(12,1)                              0.40859329146874 	(obj:0)
u(13,0)                              0.16695194694747 	(obj:0)
u(13,1)                              1.11132461237424 	(obj:0)
u(14,0)                           0.00935398717192992 	(obj:0)
u(14,1)                              0.59448760068602 	(obj:0)
u(15,0)                            0.0436309827915098 	(obj:0)
u(15,1)                              0.26858043269753 	(obj:0)
u(16,0)                              0.12976024811965 	(obj:0)
u(16,1)                              0.45720689469777 	(obj:0)
u(17,0)                              0.26643669831876 	(obj:0)
u(17,1)                              0.50540481411299 	(obj:0)
u(18,0)                              0.16834546018153 	(obj:0)
u(18,1)                            0.0023645729884807 	(obj:0)
u(19,0)                              0.46824373458864 	(obj:0)
u(19,1)                              0.56799453293884 	(obj:0)
f(0,1,0)                                            1 	(obj:0)
f(0,1,2)                                            1 	(obj:0)
f(0,1,4)                                            1 	(obj:0)
f(1,5,0)                                            1 	(obj:0)
f(1,5,1)                                            1 	(obj:0)
f(1,5,2)                                            1 	(obj:0)
f(1,5,4)                                            1 	(obj:0)
f(2,0,2)                                            1 	(obj:0)
f(2,0,4)                                            1 	(obj:0)
f(3,7,0)                                            1 	(obj:0)
f(3,7,1)                                            1 	(obj:0)
f(3,7,2)                                            1 	(obj:0)
f(3,7,3)                                            1 	(obj:0)
f(3,7,4)                                            1 	(obj:0)
f(4,2,4)                                            1 	(obj:0)
f(5,3,0)                                            1 	(obj:0)
f(5,3,1)                                            1 	(obj:0)
f(5,3,2)                                            1 	(obj:0)
f(5,3,4)                                            1 	(obj:0)
f(7,9,0)                                            1 	(obj:0)
f(7,9,1)                                            1 	(obj:0)
f(7,9,2)                                            1 	(obj:0)
f(7,9,3)                                            1 	(obj:0)
f(7,9,4)                                            1 	(obj:0)
z_r(0,)                              1.11132461237424 	(obj:0)
z_r(1,)                              1.11132461237424 	(obj:0)
z                                    1.11132461237424 	(obj:1)
