scenarios/sols/small/emicp_milp/002.out
b'The following solver is parallelized by UG version 0.9.1 [GitHash: ]\n'
b'SCIP version 7.0.2 [precision: 8 byte] [memory: block] [mode: optimized] [LP solver: SoPlex 5.0.2] [GitHash: e9d280a398]\n'
b'Copyright (C) 2002-2020 Konrad-Zuse-Zentrum fuer Informationstechnik Berlin (ZIB)\n'
b'External codes: \n'
b'  Readline 7.0         GNU library for command line editing (gnu.org/s/readline)\n'
b'  SoPlex 5.0.2         Linear Programming Solver developed at Zuse Institute Berlin (soplex.zib.de) [GitHash: e24c304e]\n'
b'  CppAD 20180000.0     Algorithmic Differentiation of C++ algorithms developed by B. Bell (www.coin-or.org/CppAD)\n'
b'  ZLIB 1.2.11          General purpose compression library by J. Gailly and M. Adler (zlib.net)\n'
b'  GMP 6.1.2            GNU Multiple Precision Arithmetic Library developed by T. Granlund (gmplib.org)\n'
b'  ZIMPL 3.4.0          Zuse Institute Mathematical Programming Language developed by T. Koch (zimpl.zib.de)\n'
b'Default LC presolving (default).\n'
b'Original Problem   :\n'
b'  Problem name     : 002\n'
b'  Variables        : 5777 (1600 binary, 0 integer, 0 implicit integer, 4177 continuous)\n'
b'  Constraints      : 14785\n'
b'  Objective sense  : minimize\n'
b'Presolved Problem  :\n'
b'  Variables        : 782 (203 binary, 0 integer, 0 implicit integer, 579 continuous)\n'
b'  Constraints      : 880\n'
b'Constraints        : Number\n'
b'  varbound         : 160 \n'
b'  knapsack         : 7 \n'
b'  setppc           : 51 \n'
b'  linear           : 659 \n'
b'  logicor          : 3 \n'
b'** Instance transfer method used: 0\n'
b'** ParaScipInstance copy does not increase the number of variables. **\n'
b'LC is working with racing ramp-up and with rebuilding tree after racing.\n'
b'                               Nodes    Active                                            \n'
b'     Time          Nodes        Left   Solvers     Best Integer        Best Node       Gap     Best Node(S)    Gap(S)\n'
b'*       0              2           1         8           1.6940           0.7573   123.69%\n'
b'*       1              2           1         8           1.4160           0.7573    86.98%\n'
b'*       1              2           1         8           1.2924           0.7573    70.65%\n'
b'*       3             76          57         8           1.1113           0.7573    46.74%\n'
b'Racing ramp-up finished after 4.87 seconds. Selected strategy 3.\n'
b'        5           1634         300         8           1.1113           0.7573     46.74%           0.7573     46.74%\n'
b'       10          13819        2604         8           1.1113           0.7573     46.74%           0.7573     46.74%\n'
b'       15          39470        3506         8           1.1113           0.7573     46.74%           0.7573     46.74%\n'
b'       20          60895        4185         8           1.1113           0.7573     46.74%           0.7573     46.74%\n'
b'       25          88211        4345         8           1.1113           0.7573     46.74%           0.7573     46.74%\n'
b'       30         109584        4074         8           1.1113           0.7573     46.74%           0.7573     46.74%\n'
b'       35         131354        4147         8           1.1113           0.7573     46.74%           0.7573     46.74%\n'
b'       40         155176        3685         8           1.1113           0.7573     46.74%           0.7573     46.74%\n'
b'       45         170892        3395         8           1.1113           0.7573     46.74%           0.7573     46.74%\n'
b'       50         179700        3444         8           1.1113           0.7573     46.74%           0.7573     46.74%\n'
b'       55         190079        2814         8           1.1113           0.7573     46.74%           0.7573     46.74%\n'
b'       60         201201        1397         8           1.1113           0.8711     27.58%           0.8711     27.58%\n'
b'       65         216976         364         8           1.1113           0.8936     24.36%           0.8936     24.36%\n'
b'       70         228394           0         0           1.1113           1.1113      0.00%\n'
b'SCIP Status        : problem is solved\n'
b'Total Time         : 69.72\n'
b'  solving          : 69.72\n'
b'  presolving       : 0.05 (included in solving)\n'
b'B&B Tree           :\n'
b'  nodes (total)    : 228394\n'
b'Solution           :\n'
b'  Solutions found  : 4\n'
b'  Primal Bound     : +1.11132461237424e+00\n'
b'  Dual Bound       : +1.11132461237424e+00\n'
b'Gap                : 0.00000 %\n'
